NAME: rbg050a.sop
TYPE: SOP
COMMENT: Stacker crane application (Norbert Ascheuer)
DIMENSION: 52
EDGE_WEIGHT_TYPE: EXPLICIT
EDGE_WEIGHT_FORMAT: FULL_MATRIX 
EDGE_WEIGHT_SECTION
52
    0    0    0    0    0    0    0    0    0    0    0    0    0    0    0    0    0    0    0    0    0    0    0    0    0    0    0    0    0    0    0    0    0    0    0    0    0    0    0    0    0    0    0    0    0    0    0    0    0    0    0 1000000
   -1    0    9   20   18   18   15   10   23   18   18   12   20   20   20   13   18   21   23   10   15   20   15   12   12    6   11   18   15   23   23   21   16   23    4   16   15   15   18   27   12   20   20   18   10   14   15   18   23   15   13    0
   -1    7    0   20   18   18   15   10   23   18   18   12   20   20   20   13   18   21   23   10   15   20   15   12   12    6   11   18   15   23   23   21   16   23    4   16   15   15   18   27   12   20   20   18   10   14   15   18   23   15   13    0
   -1   18   18    0   24   24   24   16   12   24   24   14   10   10   11   21   24   21   12   20   21   10   24   14   12   18   15    9   24   14   12   13   10   12   18   24   24   24    5   23   23   10   10    7   20   23   11   24   12   24   13    0
   -1   -1   -1   -1    0   33   31   27   20   33   33   25   23   23   23   28   33   23   21   28   28   23   31   25   25   27   26   23   31   18   21   23   24   21   27   31   31   31   23   10   29   23   23   23   28   31   24   33   20   31   25    0
   -1   -1   -1   -1    4    0   10   18   26   14   14   21   24   24   24   14   14   24   25   15   14   24   15   21   23   16   20   24   15   27   25   25   24   25   16   15   10   15   24   31   12   24   24   24   15   11   23   14   26   15   23    0
   -1   -1   -1   -1   31   33    0   27   20   33   33   25   23   23   23   28   33   23   21   28   28   23   31   25   25   27   26   23   31   18   21   23   24   21   27   31   31   31   23   10   29   23   23   23   28   31   24   33   20   31   25    0
   -1   -1   -1   -1   31   33   31    0   20   33   33   25   23   23   23   28   33   23   21   28   28   23   31   25   25   27   26   23   31   18   21   23   24   21   27   31   31   31   23   10   29   23   23   23   28   31   24   33   20   31   25    0
   -1   -1   -1   -1   31   33   31   27    0   33   33   25   23   23   23   28   33   23   21   28   28   23   31   25   25   27   26   23   31   18   21   23   24   21   27   31   31   31   23   10   29   23   23   23   28   31   24   33   20   31   25    0
   -1   -1   -1   -1   -1   12   10   15   25    0   12   18   24   24   24   12   12   23   24   12   12   24   10   18   20   14   16   23   10   25   24   24   23   24   14   11   10   10   23   30   11   24   24   23   12    0   23   12   25   10   20    0
   -1   -1   -1   -1   -1   -1   -1   -1   -1   24    0   12   11   11   11   20   24   10   15   18   20   11   23   12   12   16   14   10   23   15   12   12   15   15   16   24   23   23   10   23   21   11   11   10   18   23   10   24   14   23   12    0
   -1   -1   -1   -1   21   23   20   11   20   23   23    0   15   15   15   15   23   23   18   12   17   15   20   10   10   12   10   14   20   21   18   16   12   18   12   21   20   20   14   25   15   15   15   14   12   18   12   23   20   20   15    0
   -1   -1   -1   -1   24   25   24   18   12   25   25   15    0    8    9   23   25   20   11   21   23    2   24   15   14   20   16   10   24   12   11   12   11   11   20   24   24   24   10   23   23    6    7   10   21   24   12   25   12   24   14    0
   -1   -1   -1   -1   24   25   24   18   12   25   25   15    5    0   11   23   25   21   11   21   23    4   24   15   14   20   16   10   24   12   11   13   11   11   20   24   24   24   10   23   23    7    8   10   21   24   12   25   12   24   14    0
   -1   -1   -1   -1   24   25   24   18   12   25   25   15    6   11    0   23   25   23   11   21   23    5   24   15   14   20   16   10   24   12   11   15   11   11   20   24   24   24   10   23   23    9   10   10   21   24   12   25   12   24   15    0
   -1   -1   -1   -1   18   15   12   12   24   15   15   14   23   23   23    0   15   21   23   10   15   23   12   14   15   11   12   21   12   24   23   23   20   23   11   14   12   12   21   28   10   23   23   21   10   12   18   15   24   12   15    0
   -1   -1   -1   -1   -1   -1   -1   -1   -1   -1   25   -1   -1   -1    2   23    0   12   11   21   23    4   24   15   14   20   16   10   24   12   11   10   11   11   20   24   24   24   10   23   23    1    0   10   21   24   12   25   12   24   14    0
   -1   -1   -1   -1   24   25   24   18   12   25   25   15    3    8    9   23   25    0   11   21   23    2   24   15   14   20   16   10   24   12   11   12   11   11   20   24   24   24   10   23   23    6    7   10   21   24   12   25   12   24   14    0
   -1   -1   -1   -1   18    0   11   20   27    0    0   23   25   25   25   15    0   24    0   16   16   25   11   23   23   18   21   24   11   27   26   25   24   26   18   10   11   11   24   31   14   25   25   24   16   12   24    0   27   11   23    0
   -1   -1   -1   -1    0   18   13   18   26   18   18   21   24   24   24   14   18   24   25    0   14   24   19   21   23   16   20   24   19   27   25   25   24   25   16   19   13   19   24   31   12   24   24   24   15   13   23   18   26   19   23    0
   -1   -1   -1   -1   19   15   12   12   24   15   15   14   23   23   23   15   15   23   23   10    0   23   12   14   15   11   12   21   12   24   23   23   20   23   11   14   12   12   21   28   10   23   23   21   10   12   18   15   24   12   15    0
   -1   -1   -1   -1   24   25   24   18   12   25   25   15    3    8    9   23   25   20   11   21   23    0   24   15   14   20   16   10   24   12   11   12   11   11   20   24   24   24   10   23   23    6    7   10   21   24   12   25   12   24   14    0
   -1   -1   -1   -1   18    0   11   20   27    0    0   23   25   25   25   15    0   24   26   16   16   25    0   23   23   18   21   24   11   27   26   25   24   26   18   10   11   11   24   31   14   25   25   24   16   12   24    0   27   11   23    0
   -1   -1   -1   -1   21   23   20   11   20   23   23    8   15   15   15   15   23   23   18   12   17   15   20    0   10   12   10   14   20   21   18   16   12   18   12   21   20   20   14   25   15   15   15   14   12   18   12   23   20   20   15    0
   -1   -1   -1   -1   21   23   20   11   20   23   23    8   15   15   15   15   23   23   18   12   17   15   20   10    0   12   10   14   20   21   18   16   12   18   12   21   20   20   14   25   15   15   15   14   12   18   12   23   20   20   15    0
   -1   -1   -1   -1   18   18   15   10   23   18   18   12   20   20   20   13   18   21   23   10   15   20   15   12   12    0   11   18   15   23   23   21   16   23    4   16   15   15   18   27   12   20   20   18   10   14   15   18   23   15   13    0
   -1   -1   -1   -1   21   23   20   11   20   23   23    8   15   15   15   15   23   23   18   12   17   15   20   10   10   12    0   14   20   21   18   16   12   18   12   21   20   20   14   25   15   15   15   14   12   18   12   23   20   20   15    0
   -1   -1   -1   -1   24   24   24   16   12   24   24   14   10   10   11   21   24   21   12   20   21   10   24   14   12   18   15    0   24   14   12   13   10   12   18   24   24   24    5   23   23   10   10    7   20   23   11   24   12   24   13    0
   -1   -1   -1   -1   18    0   11   20   27    0    0   23   25   25   25   15    0   24   26   16   16   25   11   23   23   18   21   24    0   27   26   25   24   26   18   10   11   11   24   31   14   25   25   24   16   12   24    0   27   11   23    0
   -1   -1   -1   -1   27   27   26   23   10   27   27   21   12   12   12   24   27   14   15   24   24   12   26   21   20   23   23   14   26    0   11   12   15   15   23   27   26   26   14   16   24   12   12   14   24   25   16   27   10   26   20    0
   -1   -1   -1   -1   21   23   20   11   20   23   23    8   15   15   15   15   23   23   18   12   17   15   20   10   10   12   10   14   20   21    0   16   12   18   12   21   20   20   14   25   15   15   15   14   12   18   12   23   20   20   15    0
   -1   -1   -1   -1   -1   -1   -1   -1   -1   -1   -1   -1   -1   -1   -1   -1   -1   -1   -1   -1   -1   -1   -1   -1   -1   -1   -1   -1   -1   -1   21    0   24   21   27   31   31   31   23   10   29   23   23   23   28   31   24   33   20   31   25    0
   -1   -1   -1   -1   18    0   11   20   27    0    0   23   25   25   25   15    0   24   26   16   16   25   11   23   23   18   21   24   11   27   26   25    0   26   18   10   11   11   24   31   14   25   25   24   16   12   24    0   27   11   23    0
   -1   -1   -1   -1   18    0   11   20   27    0    0   23   25   25   25   15    0   24   26   16   16   25   11   23   23   18   21   24   11   27   26   25   24    0   18   10   11   11   24   31   14   25   25   24   16   12   24    0   27   11   23    0
   -1   -1   -1   -1   18   18   15   10   23   18   18   12   20   20   20   13   18   21   23   10   15   20   15   12   12    6   11   18   15   23   23   21   16   23    0   16   15   15   18   27   12   20   20   18   10   14   15   18   23   15   13    0
   -1   -1   -1   -1   18    0   11   20   27    0    0   23   25   25   25   15    0   24   26   16   16   25   11   23   23   18   21   24   11   27   26   25   24   26   18    0   11   11   24   31   14   25   25   24   16   12   24    0   27   11   23    0
   -1   -1   -1   -1   27   27   26   23   10   27   27   21   12   12   12   24   27   23   11   24   24   12   26   21   20   23   23   14   26    0   11   15   15   11   23   27    0   26   14   16   24   12   12   14   24   25   16   27   10   26   20    0
   -1   -1   -1   -1   -1   -1   -1   -1   -1   -1   -1   -1   -1   -1   -1   -1    0   -1   -1   -1   -1   25   11   23   23   18   21   24   11   27   26   25   24   26   18   10   11    0   24   31   14   25   25   24   16   12   24    0   27   11   23    0
   -1   -1   -1   -1   -1   -1   -1   -1   -1   -1   -1   -1   -1   -1   -1   -1   -1   -1   -1   -1   -1   -1   -1   -1   12   18   15    9   24   14   12   13   10   12   18   24   24   24    0   23   23   10   10    7   20   23   11   24   12   24   13    0
   -1   -1   -1   -1   -1   -1   -1   -1   -1   -1   -1   -1   -1   -1   -1   -1   -1   -1   -1   -1   -1   -1   -1   -1   -1   -1   -1   -1   -1   -1   -1   25   -1   -1   -1   -1   11   11   24    0   14   25   25   24   16   12   24    0   27   11   23    0
   -1   -1   -1   -1   -1   -1   -1   -1   -1   -1   -1   -1   -1   -1   -1   -1   -1   -1   -1   -1   -1   -1   -1   -1   -1   -1   -1   -1   -1   -1   -1   -1   -1   -1   -1   -1   -1   -1   23   10    0   23   23   23   28   31   24   33   20   31   25    0
   -1   -1   -1   -1   -1   -1   -1   -1   -1   -1   -1   -1   -1   -1   -1   -1   -1   -1   -1   -1   -1   -1   -1   -1   -1   -1   -1   -1   -1   -1   -1   -1   -1   -1   -1   -1   -1   -1   -1   23   23    0   10   10   21   24   12   25   12   24   15    0
   -1   -1   -1   -1   25   26   25   21   10   26   26   18   11   11   12   23   26   23    0   23   23   11   25   18   16   23   20   12   25   11   10   15   12    0   23   25   25   25   12   20   24   11    0   12   23   24   14   26   10   25   16    0
   -1   -1   -1   -1   -1   -1   -1   -1   -1   -1   -1   -1   -1   -1   -1   -1   -1   -1   -1   -1   -1   -1   -1   -1   -1   -1   -1   -1   -1   -1   -1   -1   -1   -1   -1   -1   -1   -1   -1   28   10   23   23    0   10   12   18   15   24   12   15    0
   -1   -1   -1   -1   -1   -1   -1   -1   -1   -1   -1   -1   -1   -1   -1   -1   -1   -1   -1   -1   -1   -1   -1   -1   -1   -1   -1   -1   -1   -1   -1   -1   -1   -1   -1   -1   -1   -1   -1   24   20   12   -1   11    0   23   10   24   15   23   15    0
   -1   -1   -1   -1   19   11    6   16   25   11   11   20   24   24   24   15   11   24   25   14   17   24    0   20   21   15   18   24    0   26   25   24   23   25   15   10    6    0   24   31   12   24   24   24   14    0   23   11   25    0   21    0
   -1   -1   -1   -1   19   11    6   16   25   11   11   20   24   24   24   15   11   24   25   14   17   24    0   20   21   15   18   24    0   26   25   24   23   25   15   10    6    0   24   31   12   24   24   24   14   10    0   11   25    0   21    0
   -1   -1   -1   -1   -1   -1   -1   -1   -1   -1   -1   -1   -1   -1   -1   -1   -1   -1   -1   -1   -1   -1   -1   -1   -1   -1   -1   -1   -1   -1   -1   -1   -1   -1   -1   -1   -1   -1   -1   -1   21   11   -1   10   18   23   10    0   14   23   12    0
   -1   -1   -1   -1   24   24   23   15   14   24   24   12   11   11   12   20   24   23   12   18   20   11   23   12   12   16   14   10   23   15   12   15    0   12   16   24   23   23   10   23   21   11   11   10   18   23   10   24    0   23   15    0
   -1   -1   -1   -1   -1   -1   -1   -1   -1   -1   -1   -1   -1   -1   -1   -1   -1   -1   -1   -1   -1   -1   -1   -1   -1   -1   -1   -1   -1   -1   -1   -1   -1   -1   -1   -1   -1   -1   -1   -1   -1   25   -1   24   16   -1   -1    0   27    0   23    0
   -1   -1   -1   -1   25   26   25   21   10   26   26   18   11   11   12   23   26   23    0   23   23   11   25   18   16   23   20   12   25   11   10   15   12    0   23   25   25   25   12   20   24   11   11   12   23   24   14   26   10   25    0    0
   -1   -1   -1   -1   -1   -1   -1   -1   -1   -1   -1   -1   -1   -1   -1   -1   -1   -1   -1   -1   -1   -1   -1   -1   -1   -1   -1   -1   -1   -1   -1   -1   -1   -1   -1   -1   -1   -1   -1   -1   -1   -1   -1   -1   -1   -1   -1   -1   -1   -1   -1    0
